0 1 319.0
0 2 208.0
0 3 130.0
0 4 412.0
0 5 101.0
0 6 138.0
0 7 153.0
0 8 178.0
0 9 333.0
0 10 213.0
0 11 13.0
0 12 32.0
0 13 72.0
0 14 227.0
1 2 216.0
1 3 246.0
1 4 388.0
1 5 272.0
1 6 344.0
1 7 290.0
1 8 315.0
1 9 14.0
1 10 142.0
1 11 306.0
1 12 287.0
1 13 301.0
1 14 149.0
2 3 114.0
2 4 431.0
2 5 165.0
2 6 202.0
2 7 172.0
2 8 197.0
2 9 202.0
2 10 320.0
2 11 195.0
2 12 212.0
2 13 136.0
2 14 211.0
3 4 317.0
3 5 110.0
3 6 112.0
3 7 58.0
3 8 83.0
3 9 232.0
3 10 206.0
3 11 117.0
3 12 98.0
3 13 139.0
3 14 97.0
4 5 311.0
4 6 313.0
4 7 259.0
4 8 284.0
4 9 374.0
4 10 407.0
4 11 399.0
4 12 415.0
4 13 340.0
4 14 414.0
5 6 106.0
5 7 52.0
5 8 77.0
5 9 286.0
5 10 200.0
5 11 88.0
5 12 107.0
5 13 29.0
5 14 207.0
6 7 54.0
6 8 79.0
6 9 344.0
6 10 202.0
6 11 125.0
6 12 106.0
6 13 135.0
6 14 209.0
7 8 25.0
7 9 290.0
7 10 148.0
7 11 140.0
7 12 156.0
7 13 81.0
7 14 155.0
8 9 315.0
8 10 173.0
8 11 165.0
8 12 181.0
8 13 106.0
8 14 180.0
9 10 156.0
9 11 320.0
9 12 301.0
9 13 315.0
9 14 135.0
10 11 226.0
10 12 245.0
10 13 229.0
10 14 291.0
11 12 19.0
11 13 59.0
11 14 214.0
12 13 78.0
12 14 195.0
13 14 236.0
